generated by phonopy                    
   1.00000000000000     
     5.2720895184559557    0.0000000000000000    0.0000000000000000
    -2.6360447592279779    4.5657634543608685    0.0000000000000000
     0.0000000000000000    0.0000000000000000   21.0668112262013949
   O    Bi   Os
     6     2     2
Direct
     0.0000000000000012    0.6367863098548204    0.4431897099354606
     0.9999999999999989    0.3632136901451796    0.5568102900645392
     0.3632136901451807    0.3632136901451796    0.4431897099354606
     0.6367863098548190    0.6367863098548204    0.5568102900645392
     0.6367863098548182    0.0000000000000000    0.4431897099354606
     0.3632136901451819    0.0000000000000000    0.5568102900645392
     0.0000000000000000    0.0000000000000000    0.6022117752079191
     0.0000000000000000    0.0000000000000000    0.3977882247920810
     0.3333333333333357    0.6666666666666643    0.5000000000000000
     0.6666666666666643    0.3333333333333357    0.5000000000000000
 
  0.00000000E+00  0.00000000E+00  0.00000000E+00
  0.00000000E+00  0.00000000E+00  0.00000000E+00
  0.00000000E+00  0.00000000E+00  0.00000000E+00
  0.00000000E+00  0.00000000E+00  0.00000000E+00
  0.00000000E+00  0.00000000E+00  0.00000000E+00
  0.00000000E+00  0.00000000E+00  0.00000000E+00
  0.00000000E+00  0.00000000E+00  0.00000000E+00
  0.00000000E+00  0.00000000E+00  0.00000000E+00
  0.00000000E+00  0.00000000E+00  0.00000000E+00
  0.00000000E+00  0.00000000E+00  0.00000000E+00
